60
1 0 19
2 0 162
2 1 154
3 1 180
3 2 302
4 0 16
4 1 310
4 2 218
4 3 67
5 0 181
5 1 101
5 3 39
5 4 27
6 1 58
6 2 138
6 4 184
6 5 61
7 0 220
7 1 46
7 2 306
7 4 292
7 5 153
7 6 109
8 0 75
8 3 212
8 4 122
8 5 167
8 7 152
9 0 297
9 2 122
9 3 281
9 4 148
9 5 132
9 6 197
9 8 12
10 0 6
10 1 302
10 3 11
10 4 176
10 5 23
10 6 316
10 7 310
10 8 43
10 9 104
11 0 170
11 1 277
11 3 290
11 4 127
11 5 262
11 6 20
11 7 270
11 8 109
11 9 294
11 10 267
12 0 223
12 1 249
12 3 31
12 4 152
12 5 187
12 6 311
12 7 281
12 8 207
12 9 93
12 10 30
12 11 318
13 0 118
13 1 303
13 2 273
13 3 306
13 4 311
13 6 143
13 7 229
13 8 193
13 9 261
14 0 288
14 1 64
14 2 106
14 3 106
14 4 173
14 6 173
14 8 143
14 10 89
14 11 90
14 13 296
15 0 260
15 2 91
15 3 237
15 4 207
15 5 61
15 7 211
15 9 238
15 10 118
15 11 178
15 13 47
15 14 25
16 1 214
16 4 148
16 5 108
16 6 44
16 9 104
16 10 159
16 11 268
16 12 63
16 14 116
16 15 272
17 0 34
17 1 84
17 2 165
17 3 312
17 4 2
17 6 126
17 7 146
17 8 12
17 9 319
17 10 220
17 11 83
17 12 61
17 14 127
17 15 222
17 16 273
18 0 232
18 1 316
18 2 277
18 3 239
18 4 71
18 5 94
18 6 315
18 7 169
18 9 314
18 10 223
18 11 53
18 12 233
18 13 128
18 14 79
18 15 316
18 16 29
18 17 133
19 0 236
19 1 296
19 2 191
19 3 187
19 4 206
19 5 237
19 6 272
19 7 207
19 8 250
19 11 292
19 12 178
19 13 289
19 15 76
19 16 310
20 1 92
20 2 245
20 3 114
20 4 243
20 5 23
20 6 196
20 7 319
20 8 252
20 11 6
20 12 208
20 13 198
20 14 203
20 15 231
20 16 179
20 17 197
20 18 230
20 19 62
21 0 15
21 1 68
21 3 25
21 5 319
21 6 49
21 7 52
21 8 310
21 9 97
21 11 126
21 12 67
21 14 200
21 17 245
21 18 266
21 19 14
21 20 214
22 0 253
22 1 148
22 2 176
22 4 310
22 5 22
22 6 2
22 7 273
22 8 16
22 9 124
22 10 29
22 11 77
22 12 143
22 13 49
22 15 35
22 16 229
22 19 205
22 20 238
22 21 185
23 0 192
23 1 20
23 2 196
23 3 239
23 4 259
23 5 49
23 6 249
23 7 178
23 8 13
23 9 229
23 10 175
23 11 161
23 12 55
23 13 38
23 14 101
23 15 210
23 16 294
23 17 107
23 18 75
23 19 156
23 20 220
23 21 274
23 22 9
24 0 93
24 1 248
24 3 282
24 4 89
24 5 170
24 6 62
24 7 7
24 8 69
24 9 66
24 10 90
24 11 264
24 12 214
24 13 215
24 14 147
24 15 53
24 16 317
24 18 297
24 19 32
24 21 116
24 22 176
24 23 146
25 0 207
25 1 260
25 2 54
25 4 296
25 5 97
25 6 153
25 7 23
25 8 296
25 9 130
25 10 14
25 11 252
25 12 230
25 13 267
25 14 5
25 15 295
25 18 199
25 20 78
25 21 5
25 22 94
25 24 295
26 0 291
26 1 43
26 3 256
26 4 305
26 5 186
26 6 134
26 7 131
26 12 252
26 13 193
26 14 175
26 15 271
26 18 300
26 19 136
26 20 278
26 23 14
26 24 309
27 1 74
27 3 255
27 4 174
27 5 139
27 7 20
27 9 285
27 11 108
27 12 20
27 14 263
27 15 304
27 16 6
27 17 115
27 18 35
27 20 184
27 21 47
27 22 59
27 23 123
27 24 3
27 25 116
27 26 24
28 1 115
28 2 289
28 3 208
28 4 247
28 5 191
28 6 284
28 7 317
28 8 271
28 9 31
28 12 94
28 13 85
28 14 224
28 15 30
28 16 184
28 18 146
28 19 66
28 20 239
28 21 147
28 22 174
28 23 205
28 24 259
28 25 250
28 26 220
28 27 131
29 0 151
29 1 112
29 2 30
29 3 243
29 5 306
29 6 162
29 7 302
29 8 38
29 10 119
29 12 277
29 13 257
29 15 38
29 16 146
29 17 36
29 18 85
29 19 232
29 20 63
29 22 123
29 23 289
29 24 6
29 25 234
29 26 69
29 27 125
29 28 6
30 0 76
30 1 147
30 3 5
30 4 317
30 5 112
30 6 297
30 7 10
30 8 146
30 9 206
30 10 183
30 11 33
30 12 279
30 13 137
30 14 61
30 15 228
30 16 126
30 17 14
30 18 110
30 19 161
30 20 212
30 21 125
30 22 183
30 23 139
30 24 3
30 25 20
30 26 49
30 29 238
31 0 180
31 1 264
31 2 139
31 3 34
31 4 141
31 6 247
31 7 63
31 8 140
31 9 191
31 10 221
31 14 187
31 17 217
31 18 296
31 19 62
31 22 2
31 23 55
31 25 144
31 26 209
31 27 3
31 29 137
31 30 15
32 1 241
32 2 141
32 3 100
32 4 102
32 5 185
32 6 292
32 7 229
32 8 296
32 9 282
32 10 151
32 11 102
32 12 78
32 13 43
32 14 19
32 15 166
32 16 269
32 18 85
32 19 311
32 21 68
32 23 185
32 24 69
32 25 24
32 27 147
32 31 293
33 0 252
33 1 130
33 3 222
33 4 163
33 5 21
33 6 164
33 7 58
33 8 308
33 9 65
33 10 316
33 11 272
33 12 123
33 14 180
33 15 222
33 16 67
33 18 5
33 19 146
33 20 288
33 21 141
33 22 204
33 26 166
33 28 167
33 29 290
33 30 125
33 31 81
34 0 275
34 1 38
34 2 31
34 3 218
34 4 311
34 6 251
34 7 171
34 8 148
34 9 216
34 11 281
34 12 291
34 13 172
34 15 317
34 16 277
34 17 15
34 18 24
34 19 150
34 20 44
34 21 133
34 23 32
34 24 162
34 25 169
34 26 314
34 27 298
34 30 46
34 31 160
34 32 10
34 33 190
35 0 235
35 1 288
35 3 207
35 4 232
35 5 78
35 8 242
35 9 209
35 10 163
35 11 253
35 12 173
35 13 262
35 14 150
35 16 284
35 17 138
35 18 117
35 19 28
35 21 258
35 23 178
35 24 316
35 25 173
35 26 166
35 27 70
35 28 45
35 29 15
35 30 244
35 31 50
35 34 158
36 0 240
36 1 152
36 2 32
36 6 184
36 8 303
36 9 254
36 10 205
36 11 125
36 12 279
36 13 284
36 14 173
36 15 192
36 16 244
36 17 173
36 18 227
36 19 44
36 20 138
36 21 29
36 22 229
36 23 93
36 24 100
36 25 183
36 26 114
36 27 142
36 28 111
36 31 291
36 34 114
36 35 275
37 0 85
37 1 172
37 2 138
37 3 181
37 6 91
37 7 15
37 8 17
37 9 251
37 10 281
37 11 4
37 12 249
37 16 313
37 17 237
37 18 89
37 19 305
37 20 224
37 21 195
37 22 313
37 24 211
37 25 117
37 26 229
37 27 158
37 28 104
37 30 98
37 32 203
37 34 99
37 35 255
37 36 48
38 1 118
38 3 24
38 4 188
38 5 160
38 6 120
38 8 153
38 9 306
38 10 197
38 11 25
38 12 70
38 14 111
38 15 92
38 18 140
38 19 152
38 20 18
38 21 129
38 22 285
38 23 167
38 25 210
38 26 42
38 28 45
38 29 47
38 30 157
38 31 91
38 32 226
38 33 196
38 34 101
38 35 198
38 36 62
38 37 124
39 0 39
39 2 89
39 4 276
39 5 135
39 7 112
39 8 67
39 10 174
39 11 136
39 12 68
39 13 132
39 14 39
39 15 222
39 16 39
39 17 80
39 18 131
39 19 271
39 22 206
39 23 75
39 24 288
39 25 131
39 26 64
39 27 194
39 30 106
39 31 282
39 32 97
39 33 320
39 34 301
39 35 12
39 38 27
40 1 72
40 2 222
40 3 275
40 4 178
40 5 197
40 6 310
40 7 135
40 8 109
40 9 227
40 10 111
40 11 76
40 12 160
40 13 309
40 14 226
40 15 214
40 16 215
40 17 49
40 18 111
40 19 182
40 20 304
40 21 258
40 22 283
40 25 143
40 26 257
40 27 78
40 28 223
40 29 109
40 30 75
40 31 85
40 33 93
40 34 110
40 35 250
40 36 176
40 39 2
41 0 206
41 1 76
41 2 11
41 3 112
41 4 187
41 6 8
41 7 265
41 8 273
41 9 181
41 10 146
41 11 60
41 14 24
41 15 163
41 18 66
41 19 33
41 22 154
41 23 132
41 24 45
41 25 149
41 26 274
41 27 29
41 28 254
41 31 133
41 32 312
41 33 206
41 34 214
41 35 197
41 36 124
41 37 211
41 39 254
41 40 225
42 0 130
42 1 117
42 2 21
42 3 284
42 4 318
42 8 290
42 9 171
42 10 4
42 13 84
42 14 240
42 15 135
42 16 161
42 18 225
42 19 305
42 20 231
42 22 319
42 23 135
42 25 144
42 26 87
42 27 95
42 28 177
42 29 56
42 30 90
42 31 127
42 34 276
42 36 231
42 37 252
42 38 136
42 39 294
42 40 35
42 41 12
43 1 65
43 2 127
43 3 110
43 4 5
43 6 124
43 7 208
43 8 193
43 9 230
43 10 175
43 11 204
43 12 110
43 13 265
43 14 11
43 15 77
43 16 306
43 17 132
43 19 129
43 22 37
43 23 125
43 24 78
43 25 93
43 26 42
43 27 65
43 28 154
43 29 211
43 30 289
43 31 107
43 32 185
43 34 106
43 35 22
43 36 143
43 37 17
43 38 80
43 39 176
43 40 94
43 41 213
43 42 316
44 0 109
44 1 95
44 2 214
44 4 183
44 6 133
44 7 98
44 9 88
44 10 272
44 11 64
44 12 138
44 13 126
44 14 293
44 15 18
44 17 195
44 18 143
44 20 153
44 21 46
44 22 1
44 23 157
44 24 182
44 25 206
44 26 29
44 27 315
44 28 183
44 29 211
44 30 158
44 31 252
44 32 37
44 33 118
44 34 36
44 35 49
44 36 81
44 37 262
44 38 295
44 39 88
44 40 151
44 43 71
45 0 115
45 3 249
45 4 111
45 5 144
45 6 246
45 7 37
45 8 22
45 9 28
45 10 283
45 12 45
45 13 179
45 14 60
45 16 191
45 17 280
45 18 269
45 19 154
45 20 35
45 21 99
45 22 155
45 23 230
45 25 142
45 27 10
45 28 132
45 29 126
45 30 254
45 31 241
45 32 102
45 33 301
45 34 272
45 35 239
45 36 291
45 37 104
45 38 8
45 40 309
45 42 163
45 43 175
45 44 302
46 0 237
46 1 226
46 2 166
46 3 269
46 5 277
46 7 80
46 8 160
46 10 190
46 11 264
46 12 184
46 13 35
46 15 4
46 16 83
46 17 220
46 18 33
46 19 256
46 20 102
46 21 311
46 22 232
46 23 232
46 24 136
46 25 169
46 26 234
46 27 275
46 28 313
46 29 114
46 30 43
46 31 170
46 32 219
46 33 174
46 34 261
46 35 249
46 36 101
46 37 254
46 38 302
46 40 198
46 41 294
46 42 4
46 43 303
46 44 53
46 45 42
47 0 118
47 1 153
47 4 119
47 5 227
47 6 29
47 7 311
47 10 52
47 11 277
47 12 166
47 13 141
47 14 282
47 16 153
47 17 214
47 18 273
47 19 46
47 20 251
47 21 71
47 22 251
47 23 6
47 24 290
47 25 96
47 30 215
47 32 266
47 33 204
47 34 4
47 35 111
47 36 154
47 37 163
47 38 143
47 39 43
47 40 114
47 41 127
47 42 5
47 43 63
47 45 207
47 46 45
48 0 239
48 1 252
48 3 203
48 5 156
48 6 276
48 7 137
48 8 184
48 9 139
48 11 292
48 12 307
48 14 242
48 15 44
48 16 82
48 17 252
48 18 296
48 19 257
48 20 137
48 21 111
48 22 287
48 23 308
48 24 211
48 25 91
48 27 31
48 29 120
48 30 36
48 31 314
48 32 73
48 33 256
48 34 78
48 35 261
48 36 201
48 37 66
48 38 6
48 40 278
48 41 252
48 43 55
48 44 45
48 45 98
48 46 102
48 47 187
49 0 25
49 1 258
49 2 193
49 3 158
49 6 307
49 7 253
49 8 139
49 9 126
49 10 285
49 11 250
49 12 196
49 13 316
49 14 283
49 15 57
49 17 37
49 18 3
49 20 286
49 24 42
49 25 314
49 26 250
49 27 270
49 28 120
49 32 74
49 33 304
49 34 129
49 35 215
49 37 82
49 38 104
49 39 3
49 40 59
49 41 267
49 42 49
49 43 275
49 44 128
49 45 49
49 46 139
49 47 157
49 48 273
50 0 21
50 1 163
50 2 270
50 4 163
50 6 39
50 7 101
50 8 169
50 9 137
50 10 97
50 11 27
50 12 177
50 13 287
50 14 296
50 15 237
50 17 6
50 18 67
50 19 260
50 20 192
50 21 300
50 23 265
50 24 29
50 25 5
50 26 93
50 27 266
50 29 165
50 30 282
50 31 172
50 32 311
50 34 39
50 36 164
50 38 14
50 40 87
50 41 10
50 42 199
50 44 258
50 45 1
50 46 286
50 47 158
50 48 215
50 49 27
51 3 168
51 4 53
51 5 146
51 6 249
51 7 225
51 8 235
51 9 311
51 10 317
51 11 162
51 13 63
51 14 83
51 16 147
51 17 6
51 19 300
51 20 316
51 21 189
51 22 242
51 23 184
51 24 151
51 25 310
51 27 156
51 28 136
51 30 159
51 31 291
51 33 158
51 34 112
51 35 83
51 36 136
51 37 165
51 39 227
51 40 144
51 41 308
51 42 319
51 44 254
51 45 139
51 46 147
51 48 206
51 49 59
52 1 81
52 3 178
52 4 180
52 5 179
52 6 178
52 7 247
52 10 261
52 12 173
52 13 198
52 15 32
52 16 158
52 17 234
52 19 175
52 20 78
52 21 249
52 23 149
52 24 208
52 25 115
52 26 111
52 27 180
52 29 32
52 30 198
52 31 24
52 32 80
52 33 122
52 34 106
52 35 56
52 36 71
52 37 223
52 39 290
52 40 9
52 41 57
52 42 162
52 43 241
52 45 188
52 48 109
52 49 32
52 50 258
52 51 132
53 1 287
53 2 73
53 4 204
53 5 229
53 6 262
53 7 121
53 8 110
53 9 317
53 10 152
53 11 314
53 12 307
53 13 175
53 14 33
53 15 48
53 16 28
53 17 40
53 18 13
53 19 178
53 20 245
53 21 206
53 22 209
53 23 87
53 24 77
53 25 269
53 26 198
53 27 69
53 29 97
53 30 294
53 31 153
53 33 241
53 34 136
53 35 25
53 36 189
53 37 240
53 39 156
53 40 72
53 41 58
53 42 311
53 44 238
53 45 115
53 47 298
53 49 233
53 50 24
53 51 58
53 52 29
54 0 90
54 2 191
54 3 319
54 4 253
54 6 101
54 7 311
54 8 201
54 9 181
54 10 224
54 11 315
54 12 284
54 13 115
54 14 86
54 15 163
54 16 311
54 17 11
54 18 43
54 20 8
54 21 280
54 22 195
54 24 205
54 25 109
54 26 10
54 27 98
54 28 264
54 29 308
54 30 109
54 31 317
54 32 149
54 34 262
54 35 127
54 36 170
54 37 294
54 38 152
54 39 103
54 40 201
54 41 315
54 42 88
54 43 66
54 46 12
54 47 270
54 48 4
54 49 166
54 51 288
54 52 78
54 53 166
55 0 75
55 1 249
55 2 254
55 3 281
55 4 74
55 8 65
55 9 244
55 10 116
55 11 30
55 13 234
55 14 31
55 15 204
55 16 267
55 17 21
55 19 129
55 20 26
55 21 113
55 23 59
55 25 121
55 26 136
55 28 189
55 29 136
55 31 151
55 32 156
55 33 235
55 34 111
55 35 57
55 36 232
55 37 14
55 38 245
55 39 248
55 40 27
55 42 172
55 43 89
55 45 122
55 46 135
55 47 300
55 48 266
55 49 86
55 50 49
55 51 174
55 52 97
55 53 318
55 54 227
56 1 171
56 2 143
56 3 130
56 4 160
56 5 173
56 6 38
56 7 124
56 9 207
56 10 162
56 11 295
56 12 277
56 13 314
56 18 236
56 20 104
56 21 119
56 23 106
56 24 222
56 25 51
56 27 159
56 29 73
56 30 91
56 31 119
56 32 319
56 34 301
56 35 238
56 36 299
56 37 127
56 38 283
56 39 175
56 40 44
56 41 114
56 42 215
56 43 80
56 44 277
56 45 93
56 47 161
56 48 61
56 49 261
56 52 158
56 53 46
56 54 133
57 0 141
57 1 316
57 2 219
57 3 267
57 4 10
57 6 87
57 7 117
57 8 154
57 10 197
57 12 20
57 14 243
57 15 186
57 16 153
57 17 197
57 18 273
57 19 187
57 20 47
57 22 163
57 23 162
57 24 258
57 25 58
57 26 11
57 27 247
57 28 19
57 29 179
57 30 6
57 31 113
57 33 165
57 35 120
57 36 143
57 37 275
57 38 175
57 39 240
57 40 176
57 43 251
57 44 140
57 46 291
57 47 70
57 48 199
57 49 160
57 50 279
57 51 95
57 52 221
57 53 52
57 56 111
58 0 86
58 1 257
58 2 116
58 3 195
58 4 113
58 6 145
58 8 72
58 9 40
58 10 252
58 11 142
58 12 98
58 13 306
58 15 65
58 16 7
58 17 218
58 20 244
58 21 100
58 22 143
58 23 154
58 24 135
58 25 88
58 26 30
58 27 159
58 28 171
58 29 318
58 30 286
58 31 204
58 32 115
58 33 122
58 34 136
58 35 313
58 36 232
58 38 124
58 39 9
58 40 107
58 41 31
58 42 315
58 43 141
58 44 52
58 45 166
58 46 81
58 47 239
58 48 146
58 50 23
58 51 156
58 53 180
58 54 38
58 55 11
58 57 13
59 0 278
59 1 195
59 2 313
59 5 289
59 7 178
59 8 284
59 9 96
59 10 161
59 11 192
59 12 297
59 13 67
59 14 302
59 15 61
59 16 5
59 19 277
59 20 39
59 21 3
59 22 150
59 23 202
59 25 7
59 27 31
59 28 98
59 29 299
59 30 10
59 31 214
59 32 36
59 33 37
59 34 52
59 36 193
59 37 197
59 38 234
59 39 25
59 40 114
59 41 67
59 42 11
59 43 109
59 44 6
59 45 46
59 46 117
59 47 143
59 48 6
59 49 211
59 50 278
59 51 231
59 52 281
59 53 207
59 54 242
59 56 118
59 57 281
